NAME: test1918
TYPE: TSP
DIMENSION: 11
EDGE_WEIGHT_TYPE: EUC_2D
NODE_COORD_SECTION
1 14.558177534383066 98.57322864361377
2 92.71187502969298 40.19815814303027
3 96.87121195937598 32.008483819434105
4 69.70783098325883 51.52837373214004
5 95.01547922215966 39.34652280650833
6 99.97978436702503 3.9458374660638396
7 20.21636493945911 94.84219690190429
8 14.635663459406667 21.782620426145538
9 83.80507053853499 60.74799351290763
10 71.93040754364579 9.40570527599347
11 19.422464766790128 21.507376734379633
EOF
